(set-logic UF)
(declare-sort S1 0)
(declare-sort S2 0)
(declare-sort S3 0)
(declare-sort S4 0)
(declare-sort S5 0)
(declare-sort S6 0)
(declare-sort S7 0)
(declare-sort S8 0)
(declare-sort S9 0)
(declare-sort S10 0)
(declare-sort S11 0)
(declare-sort S12 0)
(declare-sort S13 0)
(declare-sort S14 0)
(declare-sort S15 0)
(declare-sort S16 0)
(declare-sort S17 0)
(declare-sort S18 0)
(declare-sort S19 0)
(declare-sort S20 0)
(declare-sort S21 0)
(declare-sort S22 0)
(declare-sort S23 0)
(declare-sort S24 0)
(declare-sort S25 0)
(declare-sort S26 0)
(declare-sort S27 0)
(declare-sort S28 0)
(declare-sort S29 0)
(declare-sort S30 0)
(declare-sort S31 0)
(declare-sort S32 0)
(declare-sort S33 0)
(declare-sort S34 0)
(declare-sort S35 0)
(declare-sort S36 0)
(declare-sort S37 0)
(declare-sort S38 0)
(declare-sort S39 0)
(declare-sort S40 0)
(declare-sort S41 0)
(declare-sort S42 0)
(declare-sort S43 0)
(declare-sort S44 0)
(declare-sort S45 0)
(declare-sort S46 0)
(declare-sort S47 0)
(declare-sort S48 0)
(declare-sort S49 0)
(declare-sort S50 0)
(declare-sort S51 0)
(declare-sort S52 0)
(declare-sort S53 0)
(declare-sort S54 0)
(declare-sort S55 0)
(declare-sort S56 0)
(declare-sort S57 0)
(declare-sort S58 0)
(declare-sort S59 0)
(declare-sort S60 0)
(declare-sort S61 0)
(declare-sort S62 0)
(declare-sort S63 0)
(declare-sort S64 0)
(declare-sort S65 0)
(declare-sort S66 0)
(declare-sort S67 0)
(declare-sort S68 0)
(declare-sort S69 0)
(declare-sort S70 0)
(declare-sort S71 0)
(declare-sort S72 0)
(declare-sort S73 0)
(declare-sort S74 0)
(declare-sort S75 0)
(declare-sort S76 0)
(declare-sort S77 0)
(declare-sort S78 0)
(declare-sort S79 0)
(declare-sort S80 0)
(declare-sort S81 0)
(declare-sort S82 0)
(declare-sort S83 0)
(declare-sort S84 0)
(declare-sort S85 0)
(declare-sort S86 0)
(declare-sort S87 0)
(declare-sort S88 0)
(declare-sort S89 0)
(declare-sort S90 0)
(declare-sort S91 0)
(declare-sort S92 0)
(declare-sort S93 0)
(declare-sort S94 0)
(declare-sort S95 0)
(declare-sort S96 0)
(declare-sort S97 0)
(declare-sort S98 0)
(declare-sort S99 0)
(declare-sort S100 0)
(declare-sort S101 0)
(declare-sort S102 0)
(declare-sort S103 0)
(declare-sort S104 0)
(declare-sort S105 0)
(declare-sort S106 0)
(declare-sort S107 0)
(declare-sort S108 0)
(declare-sort S109 0)
(declare-sort S110 0)
(declare-sort S111 0)
(declare-sort S112 0)
(declare-sort S113 0)
(declare-sort S114 0)
(declare-sort S115 0)
(declare-sort S116 0)
(declare-sort S117 0)
(declare-sort S118 0)
(declare-sort S119 0)
(declare-sort S120 0)
(declare-sort S121 0)
(declare-sort S122 0)
(declare-sort S123 0)
(declare-sort S124 0)
(declare-sort S125 0)
(declare-sort S126 0)
(declare-sort S127 0)
(declare-sort S128 0)
(declare-sort S129 0)
(declare-sort S130 0)
(declare-sort S131 0)
(declare-sort S132 0)
(declare-sort S133 0)
(declare-sort S134 0)
(declare-sort S135 0)
(declare-sort S136 0)
(declare-sort S137 0)
(declare-sort S138 0)
(declare-sort S139 0)
(declare-sort S140 0)
(declare-sort S141 0)
(declare-sort S142 0)
(declare-sort S143 0)
(declare-sort S144 0)
(declare-sort S145 0)
(declare-sort S146 0)
(declare-sort S147 0)
(declare-sort S148 0)
(declare-sort S149 0)
(declare-sort S150 0)
(declare-sort S151 0)
(declare-sort S152 0)
(declare-sort S153 0)
(declare-sort S154 0)
(declare-sort S155 0)
(declare-sort S156 0)
(declare-sort S157 0)
(declare-sort S158 0)
(declare-sort S159 0)
(declare-sort S160 0)
(declare-sort S161 0)
(declare-sort S162 0)
(declare-sort S163 0)
(declare-sort S164 0)
(declare-sort S165 0)
(declare-sort S166 0)
(declare-sort S167 0)
(declare-sort S168 0)
(declare-sort S169 0)
(declare-sort S170 0)
(declare-sort S171 0)
(declare-sort S172 0)
(declare-sort S173 0)
(declare-sort S174 0)
(declare-sort S175 0)
(declare-sort S176 0)
(declare-sort S177 0)
(declare-sort S178 0)
(declare-sort S179 0)
(declare-sort S180 0)
(declare-sort S181 0)
(declare-sort S182 0)
(declare-sort S183 0)
(declare-sort S184 0)
(declare-sort S185 0)
(declare-sort S186 0)
(declare-sort S187 0)
(declare-sort S188 0)
(declare-sort S189 0)
(declare-sort S190 0)
(declare-sort S191 0)
(declare-sort S192 0)
(declare-sort S193 0)
(declare-sort S194 0)
(declare-sort S195 0)
(declare-sort S196 0)
(declare-sort S197 0)
(declare-sort S198 0)
(declare-sort S199 0)
(declare-sort S200 0)
(declare-sort S201 0)
(declare-sort S202 0)
(declare-sort S203 0)
(declare-sort S204 0)
(declare-sort S205 0)
(declare-sort S206 0)
(declare-sort S207 0)
(declare-sort S208 0)
(declare-sort S209 0)
(declare-sort S210 0)
(declare-sort S211 0)
(declare-sort S212 0)
(declare-sort S213 0)
(declare-sort S214 0)
(declare-sort S215 0)
(declare-sort S216 0)
(declare-sort S217 0)
(declare-sort S218 0)
(declare-sort S219 0)
(declare-sort S220 0)
(declare-sort S221 0)
(declare-sort S222 0)
(declare-sort S223 0)
(declare-sort S224 0)
(declare-sort S225 0)
(declare-sort S226 0)
(declare-sort S227 0)
(declare-sort S228 0)
(declare-sort S229 0)
(declare-sort S230 0)
(declare-sort S231 0)
(declare-sort S232 0)
(declare-fun f1 () S1)
(declare-fun f2 () S1)
(declare-fun f3 (S4 S3) S1)
(declare-fun f4 (S5 S3) S4)
(declare-fun f5 (S6 S2) S5)
(declare-fun f6 () S6)
(declare-fun f7 (S7 S2) S1)
(declare-fun f8 (S8 S9) S7)
(declare-fun f9 () S8)
(declare-fun f10 (S10 S3) S9)
(declare-fun f11 (S11 S3) S10)
(declare-fun f12 () S11)
(declare-fun f13 (S14 S13) S1)
(declare-fun f14 (S15 S13) S14)
(declare-fun f15 (S16 S12) S15)
(declare-fun f16 () S16)
(declare-fun f17 (S17 S12) S1)
(declare-fun f18 (S18 S19) S17)
(declare-fun f19 () S18)
(declare-fun f20 (S20 S13) S19)
(declare-fun f21 (S21 S13) S20)
(declare-fun f22 () S21)
(declare-fun f23 (S23 S22) S1)
(declare-fun f24 (S24 S22) S23)
(declare-fun f25 (S25 S4) S24)
(declare-fun f26 () S25)
(declare-fun f27 (S26 S4) S1)
(declare-fun f28 (S27 S3) S26)
(declare-fun f29 () S27)
(declare-fun f30 (S28 S22) S3)
(declare-fun f31 (S29 S22) S28)
(declare-fun f32 () S29)
(declare-fun f33 (S31 S30) S1)
(declare-fun f34 (S32 S30) S31)
(declare-fun f35 (S33 S14) S32)
(declare-fun f36 () S33)
(declare-fun f37 (S34 S14) S1)
(declare-fun f38 (S35 S13) S34)
(declare-fun f39 () S35)
(declare-fun f40 (S36 S30) S13)
(declare-fun f41 (S37 S30) S36)
(declare-fun f42 () S37)
(declare-fun f43 (S39 S38) S1)
(declare-fun f44 (S40 S38) S39)
(declare-fun f45 (S41 S23) S40)
(declare-fun f46 () S41)
(declare-fun f47 (S42 S23) S1)
(declare-fun f48 (S43 S22) S42)
(declare-fun f49 () S43)
(declare-fun f50 (S44 S38) S22)
(declare-fun f51 (S45 S38) S44)
(declare-fun f52 () S45)
(declare-fun f53 (S48 S47) S1)
(declare-fun f54 (S49 S47) S48)
(declare-fun f55 (S50 S46) S49)
(declare-fun f56 () S50)
(declare-fun f57 (S51 S46) S1)
(declare-fun f58 (S52 S53) S51)
(declare-fun f59 () S52)
(declare-fun f60 (S54 S47) S53)
(declare-fun f61 (S55 S47) S54)
(declare-fun f62 () S55)
(declare-fun f63 (S58 S57) S1)
(declare-fun f64 (S59 S57) S58)
(declare-fun f65 (S60 S56) S59)
(declare-fun f66 () S60)
(declare-fun f67 (S61 S56) S1)
(declare-fun f68 (S62 S63) S61)
(declare-fun f69 () S62)
(declare-fun f70 (S64 S57) S63)
(declare-fun f71 (S65 S57) S64)
(declare-fun f72 () S65)
(declare-fun f73 (S67 S66) S58)
(declare-fun f74 (S68 S31) S67)
(declare-fun f75 () S68)
(declare-fun f76 (S69 S31) S1)
(declare-fun f77 (S70 S30) S69)
(declare-fun f78 () S70)
(declare-fun f79 (S71 S57) S30)
(declare-fun f80 (S72 S66) S71)
(declare-fun f81 () S72)
(declare-fun f82 (S74 S73) S58)
(declare-fun f83 (S75 S39) S74)
(declare-fun f84 () S75)
(declare-fun f85 (S76 S39) S1)
(declare-fun f86 (S77 S38) S76)
(declare-fun f87 () S77)
(declare-fun f88 (S78 S57) S38)
(declare-fun f89 (S79 S73) S78)
(declare-fun f90 () S79)
(declare-fun f91 (S81 S80) S1)
(declare-fun f92 (S82 S80) S81)
(declare-fun f93 (S83 S48) S82)
(declare-fun f94 () S83)
(declare-fun f95 (S84 S48) S1)
(declare-fun f96 (S85 S47) S84)
(declare-fun f97 () S85)
(declare-fun f98 (S86 S80) S47)
(declare-fun f99 (S87 S80) S86)
(declare-fun f100 () S87)
(declare-fun f101 (S89 S88) S81)
(declare-fun f102 (S90 S58) S89)
(declare-fun f103 () S90)
(declare-fun f104 (S91 S58) S1)
(declare-fun f105 (S92 S57) S91)
(declare-fun f106 () S92)
(declare-fun f107 (S93 S80) S57)
(declare-fun f108 (S94 S88) S93)
(declare-fun f109 () S94)
(declare-fun f110 () S73)
(declare-fun f111 () S88)
(declare-fun f112 () S80)
(declare-fun f113 () S73)
(declare-fun f114 () S88)
(declare-fun f115 () S80)
(declare-fun f116 (S95 S96) S23)
(declare-fun f117 () S95)
(declare-fun f118 () S96)
(declare-fun f119 (S97 S96) S1)
(declare-fun f120 (S98 S99) S97)
(declare-fun f121 () S98)
(declare-fun f122 () S99)
(declare-fun f123 (S100 S101) S1)
(declare-fun f124 (S102 S19) S101)
(declare-fun f125 (S103 S19) S102)
(declare-fun f126 () S103)
(declare-fun f127 (S2 S9) S1)
(declare-fun f128 (S12 S19) S1)
(declare-fun f129 (S104 S105) S1)
(declare-fun f130 (S106 S63) S105)
(declare-fun f131 (S107 S63) S106)
(declare-fun f132 () S107)
(declare-fun f133 (S108 S66) S1)
(declare-fun f134 (S109 S66) S56)
(declare-fun f135 (S110 S109) S14)
(declare-fun f136 (S111 S108) S110)
(declare-fun f137 () S111)
(declare-fun f138 (S112 S73) S1)
(declare-fun f139 (S113 S73) S56)
(declare-fun f140 (S114 S113) S23)
(declare-fun f141 (S115 S112) S114)
(declare-fun f142 () S115)
(declare-fun f143 (S116 S30) S14)
(declare-fun f144 (S117 S116) S12)
(declare-fun f145 (S118 S31) S117)
(declare-fun f146 () S118)
(declare-fun f147 (S119 S88) S1)
(declare-fun f148 (S120 S88) S48)
(declare-fun f149 (S121 S120) S56)
(declare-fun f150 (S122 S119) S121)
(declare-fun f151 () S122)
(declare-fun f152 (S123 S38) S23)
(declare-fun f153 (S124 S123) S4)
(declare-fun f154 (S125 S39) S124)
(declare-fun f155 () S125)
(declare-fun f156 (S127 S100) S1)
(declare-fun f157 (S128 S101) S127)
(declare-fun f158 () S128)
(declare-fun f159 (S126 S19) S100)
(declare-fun f160 (S129 S130) S1)
(declare-fun f161 (S131 S132) S129)
(declare-fun f162 () S131)
(declare-fun f163 (S101 S101) S132)
(declare-fun f164 (S133 S126) S130)
(declare-fun f165 (S134 S12) S133)
(declare-fun f166 () S134)
(declare-fun f167 (S56 S63) S1)
(declare-fun f168 (S136 S104) S1)
(declare-fun f169 (S137 S105) S136)
(declare-fun f170 () S137)
(declare-fun f171 (S135 S63) S104)
(declare-fun f172 (S138 S139) S1)
(declare-fun f173 (S140 S141) S138)
(declare-fun f174 () S140)
(declare-fun f175 (S105 S105) S141)
(declare-fun f176 (S142 S135) S139)
(declare-fun f177 (S143 S56) S142)
(declare-fun f178 () S143)
(declare-fun f179 (S144 S3) S2)
(declare-fun f180 (S145 S146) S1)
(declare-fun f181 (S147 S148) S145)
(declare-fun f182 () S147)
(declare-fun f183 (S9 S9) S148)
(declare-fun f184 (S149 S144) S146)
(declare-fun f185 (S150 S4) S149)
(declare-fun f186 () S150)
(declare-fun f187 (S151 S47) S46)
(declare-fun f188 (S152 S153) S1)
(declare-fun f189 (S154 S155) S152)
(declare-fun f190 () S154)
(declare-fun f191 (S53 S53) S155)
(declare-fun f192 (S156 S151) S153)
(declare-fun f193 (S157 S48) S156)
(declare-fun f194 () S157)
(declare-fun f195 (S158 S80) S48)
(declare-fun f196 (S159 S158) S46)
(declare-fun f197 (S160 S81) S159)
(declare-fun f198 () S160)
(declare-fun f199 (S161 S22) S4)
(declare-fun f200 (S162 S161) S2)
(declare-fun f201 (S163 S23) S162)
(declare-fun f202 () S163)
(declare-fun f203 (S164 S57) S56)
(declare-fun f204 (S165 S164) S104)
(declare-fun f205 (S166 S58) S165)
(declare-fun f206 () S166)
(declare-fun f207 (S167 S13) S12)
(declare-fun f208 (S168 S167) S100)
(declare-fun f209 (S169 S14) S168)
(declare-fun f210 () S169)
(declare-fun f211 (S170 S171) S58)
(declare-fun f212 (S172 S96) S170)
(declare-fun f213 () S172)
(declare-fun f214 () S171)
(declare-fun f215 (S173 S88) S119)
(declare-fun f216 () S173)
(declare-fun f217 (S175 S174) S1)
(declare-fun f218 (S176 S73) S175)
(declare-fun f219 (S177 S171) S176)
(declare-fun f220 (S178 S88) S177)
(declare-fun f221 (S179 S96) S178)
(declare-fun f222 () S179)
(declare-fun f223 (S180 S174) S175)
(declare-fun f224 (S181 S96) S180)
(declare-fun f225 () S181)
(declare-fun f226 (S46 S53) S1)
(declare-fun f227 (S182 S73) S73)
(declare-fun f228 (S183 S184) S182)
(declare-fun f229 (S185 S73) S183)
(declare-fun f230 () S185)
(declare-fun f231 () S184)
(declare-fun f232 () S73)
(declare-fun f233 () S174)
(declare-fun f234 (S186 S96) S119)
(declare-fun f235 () S186)
(declare-fun f236 (S187 S171) S1)
(declare-fun f237 (S188 S80) S187)
(declare-fun f238 (S189 S88) S188)
(declare-fun f239 (S190 S96) S189)
(declare-fun f240 () S190)
(declare-fun f241 (S57) S88)
(declare-fun f242 (S191 S80) S80)
(declare-fun f243 (S80) S191)
(declare-fun f244 (S192 S23) S23)
(declare-fun f245 () S192)
(declare-fun f246 (S194 S193) S73)
(declare-fun f247 () S194)
(declare-fun f248 () S182)
(declare-fun f249 (S195 S12) S12)
(declare-fun f250 () S195)
(declare-fun f251 (S196 S56) S56)
(declare-fun f252 () S196)
(declare-fun f253 (S197 S4) S4)
(declare-fun f254 () S197)
(declare-fun f255 (S198 S48) S48)
(declare-fun f256 () S198)
(declare-fun f257 (S199 S14) S14)
(declare-fun f258 () S199)
(declare-fun f259 (S200 S100) S100)
(declare-fun f260 () S200)
(declare-fun f261 (S201 S104) S104)
(declare-fun f262 () S201)
(declare-fun f263 (S202 S2) S2)
(declare-fun f264 () S202)
(declare-fun f265 (S203 S46) S46)
(declare-fun f266 () S203)
(declare-fun f267 () S175)
(declare-fun f268 (S205 S204) S182)
(declare-fun f269 (S206 S204) S205)
(declare-fun f270 (S207 S73) S206)
(declare-fun f271 () S207)
(declare-fun f272 (S208 S73) S182)
(declare-fun f273 () S208)
(declare-fun f274 () S207)
(declare-fun f275 (S209 S204) S73)
(declare-fun f276 (S210 S204) S209)
(declare-fun f277 (S211 S73) S210)
(declare-fun f278 () S211)
(declare-fun f279 () S205)
(declare-fun f280 (S212 S1) S193)
(declare-fun f281 () S212)
(declare-fun f282 () S193)
(declare-fun f283 (S213 S73) S208)
(declare-fun f284 () S213)
(declare-fun f285 (S214 S66) S73)
(declare-fun f286 (S215 S204) S214)
(declare-fun f287 (S216 S73) S215)
(declare-fun f288 () S216)
(declare-fun f289 () S193)
(declare-fun f290 (S217 S96) S14)
(declare-fun f291 () S217)
(declare-fun f292 (S218 S66) S66)
(declare-fun f293 (S219 S73) S218)
(declare-fun f294 () S219)
(declare-fun f295 (S221 S220) S1)
(declare-fun f296 (S222 S66) S221)
(declare-fun f297 (S223 S171) S222)
(declare-fun f298 (S224 S88) S223)
(declare-fun f299 (S225 S96) S224)
(declare-fun f300 () S225)
(declare-fun f301 (S226 S57) S67)
(declare-fun f302 (S227 S66) S226)
(declare-fun f303 (S228 S96) S227)
(declare-fun f304 () S228)
(declare-fun f305 () S208)
(declare-fun f306 (S230 S66) S218)
(declare-fun f307 () S230)
(declare-fun f308 (S231 S229) S66)
(declare-fun f309 (S232 S194) S231)
(declare-fun f310 () S232)
(assert (= f1 (f47 (f48 f49 (f50 (f51 f52 (f88 (f89 f90 f110) (f107 (f108 f109 f111) f112))) (f88 (f89 f90 f113) (f107 (f108 f109 f114) f115)))) (f116 f117 f118))))
(assert (not (= f1 (f47 (f48 f49 (f50 (f51 f52 (f88 (f89 f90 f110) (f107 (f108 f109 f111) f112))) (f88 (f89 f90 f113) (f107 (f108 f109 f114) f115)))) (f116 f117 f118)))))
(check-sat)
(exit)
